nN = 10;
nR = 60;
nH = 1;

a = [[25, 18, 15, 16, 18, 25, 19, 18, 25, 23, 19, 25, 19, 21, 24, 16, 18, 23, 18, 17, 25, 20, 24, 21, 17, 19, 24, 25, 17, 19, 19, 25, 20, 17, 21, 20, 20, 17, 19, 25, 25, 19, 23, 24, 20, 16, 21, 24, 17, 15, 17, 19, 15, 21, 25, 16, 21, 20, 24, 22], [21, 21, 15, 23, 23, 22, 20, 22, 21, 24, 20, 19, 23, 24, 23, 23, 22, 22, 15, 18, 20, 19, 20, 24, 22, 20, 20, 20, 20, 17, 20, 24, 18, 19, 22, 17, 21, 17, 19, 17, 22, 22, 18, 22, 20, 17, 19, 15, 15, 19, 23, 22, 24, 23, 17, 21, 25, 23, 20, 19], [21, 17, 24, 17, 24, 15, 22, 24, 20, 18, 21, 23, 19, 24, 23, 22, 22, 21, 16, 18, 21, 22, 25, 22, 17, 25, 22, 22, 24, 22, 25, 20, 16, 19, 23, 20, 18, 23, 23, 19, 19, 21, 17, 22, 15, 16, 23, 24, 17, 22, 23, 18, 24, 16, 20, 25, 19, 17, 22, 21], [21, 20, 22, 15, 23, 24, 25, 22, 18, 16, 23, 24, 20, 21, 15, 21, 17, 20, 24, 22, 24, 25, 16, 17, 18, 20, 25, 18, 24, 24, 24, 22, 19, 20, 15, 20, 17, 19, 16, 23, 15, 22, 22, 24, 15, 16, 20, 17, 21, 24, 24, 24, 24, 25, 19, 24, 25, 16, 22, 19], [24, 23, 22, 19, 18, 16, 23, 18, 22, 24, 25, 16, 23, 21, 17, 18, 19, 17, 25, 17, 18, 23, 24, 18, 24, 23, 23, 15, 19, 18, 24, 19, 19, 24, 24, 24, 15, 21, 21, 24, 24, 19, 23, 24, 21, 23, 24, 22, 18, 19, 24, 15, 17, 17, 25, 17, 24, 16, 19, 21], [16, 21, 19, 22, 16, 16, 17, 23, 25, 16, 18, 22, 15, 25, 20, 15, 18, 23, 22, 16, 17, 17, 16, 24, 24, 16, 17, 23, 19, 23, 15, 17, 24, 19, 24, 24, 24, 16, 22, 16, 18, 23, 23, 20, 16, 25, 23, 17, 18, 23, 24, 19, 22, 19, 19, 18, 21, 21, 22, 17], [23, 23, 19, 18, 19, 19, 21, 24, 22, 16, 17, 25, 24, 17, 23, 17, 20, 25, 25, 22, 17, 24, 17, 17, 23, 23, 16, 17, 19, 19, 23, 24, 17, 25, 18, 19, 18, 16, 17, 17, 24, 23, 17, 19, 15, 23, 22, 17, 23, 21, 15, 19, 18, 22, 23, 16, 16, 22, 16, 21], [24, 16, 15, 25, 16, 15, 20, 20, 22, 18, 21, 19, 21, 19, 17, 17, 17, 22, 25, 17, 20, 25, 15, 17, 20, 16, 23, 20, 23, 22, 23, 15, 21, 24, 21, 23, 19, 24, 17, 24, 25, 18, 24, 21, 20, 18, 22, 15, 16, 18, 23, 24, 25, 20, 20, 21, 17, 15, 24, 21], [18, 18, 18, 19, 18, 24, 22, 19, 25, 15, 16, 23, 17, 16, 18, 22, 21, 18, 21, 18, 20, 18, 16, 24, 17, 22, 24, 18, 22, 18, 24, 23, 23, 25, 20, 23, 18, 22, 21, 18, 24, 17, 15, 25, 23, 16, 22, 24, 18, 21, 16, 24, 22, 18, 25, 23, 23, 18, 16, 22], [16, 18, 19, 18, 18, 24, 24, 23, 25, 16, 20, 22, 25, 16, 20, 18, 19, 24, 24, 25, 22, 23, 23, 24, 18, 24, 16, 21, 17, 22, 22, 16, 15, 17, 19, 23, 15, 19, 22, 22, 23, 23, 16, 20, 22, 24, 20, 20, 23, 16, 24, 17, 22, 17, 19, 25, 16, 16, 19, 16]];
c = [[[0, 0, 0, 0, 0, 0, 0, 0, 0, 0, 0, 0, 0, 0, 0, 0, 0, 0, 0, 0, 0, 0, 0, 0, 0, 0, 0, 0, 0, 0, 0, 0, 0, 0, 0, 0, 0, 0, 0, 0, 0, 0, 0, 0, 0, 0, 0, 0, 0, 0, 0, 0, 0, 0, 0, 0, 0, 0, 0, 0], [37, 48, 36, 50, 32, 30, 37, 46, 33, 43, 45, 35, 35, 40, 49, 37, 33, 40, 34, 44, 35, 33, 50, 38, 43, 33, 40, 42, 33, 48, 47, 40, 48, 37, 50, 31, 46, 41, 44, 38, 40, 34, 43, 50, 34, 50, 43, 30, 40, 49, 40, 36, 30, 48, 35, 41, 31, 43, 31, 31], [42, 30, 44, 44, 46, 31, 30, 48, 40, 30, 33, 38, 44, 41, 37, 45, 30, 35, 33, 40, 37, 47, 43, 43, 41, 35, 38, 40, 38, 40, 38, 36, 34, 50, 34, 41, 37, 36, 32, 32, 39, 32, 41, 33, 41, 34, 43, 32, 35, 34, 38, 37, 48, 47, 49, 43, 37, 31, 48, 38], [36, 40, 43, 44, 31, 38, 36, 46, 33, 44, 37, 38, 36, 48, 39, 41, 42, 49, 45, 40, 39, 33, 42, 30, 46, 40, 50, 35, 41, 30, 35, 47, 45, 34, 30, 43, 39, 46, 46, 38, 44, 31, 43, 46, 44, 43, 38, 41, 33, 30, 35, 42, 41, 37, 38, 31, 40, 31, 50, 31], [47, 30, 40, 35, 40, 31, 46, 44, 47, 43, 43, 41, 43, 48, 43, 34, 32, 30, 41, 32, 32, 40, 33, 30, 35, 46, 39, 42, 31, 37, 44, 39, 39, 45, 44, 31, 40, 38, 45, 33, 48, 36, 30, 36, 30, 42, 43, 46, 38, 38, 33, 32, 31, 30, 35, 39, 36, 36, 43, 33], [36, 38, 49, 37, 30, 50, 48, 43, 31, 30, 30, 38, 50, 31, 31, 35, 32, 43, 40, 46, 37, 37, 37, 36, 49, 33, 50, 32, 42, 42, 47, 33, 44, 35, 48, 31, 31, 50, 31, 40, 49, 42, 48, 32, 49, 32, 30, 41, 30, 47, 46, 37, 37, 32, 41, 50, 35, 33, 34, 38], [46, 39, 47, 44, 44, 41, 31, 31, 47, 30, 47, 41, 36, 32, 31, 49, 33, 31, 37, 38, 32, 41, 45, 38, 39, 48, 46, 43, 35, 34, 41, 30, 34, 43, 37, 35, 43, 41, 44, 34, 48, 46, 32, 49, 49, 45, 40, 47, 48, 48, 31, 34, 44, 48, 45, 44, 46, 35, 40, 44], [44, 47, 39, 43, 45, 30, 32, 43, 45, 49, 49, 33, 47, 44, 47, 33, 30, 41, 34, 45, 35, 34, 31, 46, 36, 40, 46, 50, 48, 38, 38, 40, 33, 40, 37, 32, 48, 41, 35, 31, 36, 32, 46, 45, 48, 46, 30, 39, 34, 41, 45, 42, 36, 48, 43, 48, 41, 37, 35, 31], [31, 40, 36, 42, 42, 42, 44, 40, 35, 39, 41, 30, 46, 39, 38, 30, 34, 50, 48, 35, 38, 40, 40, 48, 35, 43, 30, 41, 31, 50, 44, 44, 49, 31, 35, 41, 45, 32, 34, 40, 33, 32, 39, 44, 46, 33, 33, 49, 35, 44, 44, 41, 43, 40, 50, 33, 38, 47, 41, 43], [36, 47, 39, 45, 35, 42, 32, 39, 40, 43, 46, 50, 35, 50, 50, 38, 32, 48, 50, 37, 43, 40, 30, 37, 44, 37, 41, 48, 34, 48, 42, 44, 40, 33, 45, 43, 48, 35, 42, 39, 41, 34, 33, 50, 42, 37, 36, 33, 30, 39, 34, 48, 31, 33, 49, 36, 38, 31, 37, 46]], [[0, 0, 0, 0, 0, 0, 0, 0, 0, 0, 0, 0, 0, 0, 0, 0, 0, 0, 0, 0, 0, 0, 0, 0, 0, 0, 0, 0, 0, 0, 0, 0, 0, 0, 0, 0, 0, 0, 0, 0, 0, 0, 0, 0, 0, 0, 0, 0, 0, 0, 0, 0, 0, 0, 0, 0, 0, 0, 0, 0], [0, 0, 0, 0, 0, 0, 0, 0, 0, 0, 0, 0, 0, 0, 0, 0, 0, 0, 0, 0, 0, 0, 0, 0, 0, 0, 0, 0, 0, 0, 0, 0, 0, 0, 0, 0, 0, 0, 0, 0, 0, 0, 0, 0, 0, 0, 0, 0, 0, 0, 0, 0, 0, 0, 0, 0, 0, 0, 0, 0], [49, 33, 40, 31, 45, 41, 41, 37, 31, 32, 43, 32, 40, 36, 33, 47, 38, 33, 30, 30, 45, 43, 44, 46, 45, 49, 49, 48, 38, 47, 35, 39, 38, 49, 49, 49, 33, 46, 36, 44, 35, 32, 43, 33, 44, 44, 37, 50, 41, 32, 42, 35, 30, 50, 31, 49, 42, 48, 34, 44], [47, 36, 31, 35, 47, 32, 35, 39, 49, 34, 40, 48, 50, 34, 40, 30, 41, 33, 37, 42, 47, 40, 46, 34, 44, 42, 35, 47, 44, 33, 32, 47, 36, 40, 47, 43, 40, 41, 46, 49, 49, 44, 40, 31, 48, 37, 39, 34, 48, 39, 41, 36, 33, 41, 31, 35, 49, 49, 47, 34], [33, 47, 31, 31, 31, 43, 34, 31, 39, 32, 49, 37, 30, 38, 38, 49, 47, 32, 30, 30, 34, 35, 48, 45, 32, 37, 34, 37, 45, 41, 42, 36, 36, 39, 48, 42, 38, 31, 39, 45, 39, 33, 40, 40, 44, 35, 34, 39, 41, 43, 37, 40, 33, 34, 47, 31, 31, 36, 33, 35], [42, 39, 38, 33, 43, 43, 38, 30, 37, 43, 42, 32, 46, 31, 33, 37, 45, 44, 46, 44, 34, 35, 32, 30, 33, 38, 36, 39, 38, 33, 44, 42, 50, 36, 44, 50, 49, 39, 45, 37, 42, 31, 40, 31, 30, 30, 48, 41, 43, 40, 46, 31, 44, 32, 30, 43, 30, 36, 37, 30], [50, 43, 40, 33, 46, 40, 46, 31, 47, 45, 33, 38, 45, 49, 46, 36, 41, 46, 50, 37, 38, 43, 38, 46, 46, 49, 37, 36, 50, 37, 48, 41, 49, 37, 49, 40, 49, 37, 31, 35, 39, 37, 50, 33, 45, 36, 37, 40, 41, 39, 42, 37, 48, 45, 44, 35, 37, 50, 35, 45], [34, 32, 43, 33, 41, 45, 45, 34, 46, 42, 33, 50, 49, 40, 49, 46, 41, 31, 42, 34, 39, 45, 31, 49, 46, 49, 31, 38, 41, 46, 46, 44, 46, 38, 38, 43, 44, 34, 49, 45, 47, 43, 45, 41, 33, 35, 47, 36, 44, 33, 46, 31, 31, 46, 34, 46, 42, 41, 31, 36], [31, 50, 31, 46, 46, 36, 44, 31, 42, 37, 37, 33, 45, 45, 43, 39, 45, 43, 36, 43, 32, 30, 45, 39, 40, 30, 46, 35, 47, 46, 46, 49, 48, 30, 49, 31, 45, 37, 33, 44, 39, 48, 42, 41, 32, 30, 31, 30, 40, 44, 36, 35, 30, 50, 33, 33, 47, 36, 44, 46], [43, 39, 41, 36, 40, 33, 43, 30, 48, 48, 35, 38, 33, 41, 48, 39, 40, 32, 30, 46, 50, 37, 38, 35, 39, 34, 45, 49, 45, 36, 41, 30, 41, 42, 35, 48, 33, 44, 35, 43, 36, 30, 34, 36, 47, 43, 39, 49, 35, 43, 44, 36, 39, 47, 45, 35, 48, 46, 30, 38]], [[0, 0, 0, 0, 0, 0, 0, 0, 0, 0, 0, 0, 0, 0, 0, 0, 0, 0, 0, 0, 0, 0, 0, 0, 0, 0, 0, 0, 0, 0, 0, 0, 0, 0, 0, 0, 0, 0, 0, 0, 0, 0, 0, 0, 0, 0, 0, 0, 0, 0, 0, 0, 0, 0, 0, 0, 0, 0, 0, 0], [0, 0, 0, 0, 0, 0, 0, 0, 0, 0, 0, 0, 0, 0, 0, 0, 0, 0, 0, 0, 0, 0, 0, 0, 0, 0, 0, 0, 0, 0, 0, 0, 0, 0, 0, 0, 0, 0, 0, 0, 0, 0, 0, 0, 0, 0, 0, 0, 0, 0, 0, 0, 0, 0, 0, 0, 0, 0, 0, 0], [0, 0, 0, 0, 0, 0, 0, 0, 0, 0, 0, 0, 0, 0, 0, 0, 0, 0, 0, 0, 0, 0, 0, 0, 0, 0, 0, 0, 0, 0, 0, 0, 0, 0, 0, 0, 0, 0, 0, 0, 0, 0, 0, 0, 0, 0, 0, 0, 0, 0, 0, 0, 0, 0, 0, 0, 0, 0, 0, 0], [39, 46, 36, 32, 30, 46, 42, 37, 44, 38, 45, 45, 39, 37, 31, 31, 45, 43, 47, 38, 36, 36, 33, 50, 44, 31, 49, 41, 43, 35, 42, 48, 50, 45, 37, 41, 39, 32, 44, 34, 31, 34, 47, 50, 50, 50, 36, 32, 32, 47, 45, 49, 39, 41, 38, 45, 47, 45, 37, 48], [43, 40, 45, 43, 37, 50, 49, 35, 37, 46, 45, 44, 44, 32, 49, 43, 40, 34, 33, 44, 30, 43, 39, 35, 32, 49, 31, 40, 37, 47, 37, 40, 34, 36, 42, 40, 48, 44, 34, 34, 48, 48, 30, 44, 39, 30, 30, 32, 45, 42, 49, 48, 46, 45, 41, 48, 40, 30, 34, 43], [45, 37, 44, 50, 49, 36, 45, 44, 40, 31, 39, 31, 49, 46, 50, 50, 47, 47, 31, 48, 32, 50, 43, 39, 34, 37, 31, 39, 30, 33, 41, 34, 49, 49, 44, 31, 44, 45, 39, 50, 35, 39, 47, 34, 43, 46, 42, 43, 42, 38, 36, 41, 50, 30, 42, 44, 44, 38, 30, 41], [43, 30, 32, 36, 35, 38, 44, 33, 38, 34, 34, 34, 38, 50, 31, 42, 48, 43, 30, 38, 48, 50, 36, 35, 48, 50, 41, 46, 42, 47, 48, 48, 41, 41, 30, 43, 31, 44, 45, 46, 33, 37, 34, 50, 31, 40, 42, 38, 47, 32, 34, 30, 37, 37, 44, 49, 36, 36, 49, 31], [46, 38, 34, 30, 40, 33, 48, 41, 45, 35, 32, 42, 33, 32, 45, 48, 49, 33, 44, 46, 44, 37, 46, 38, 39, 36, 41, 49, 35, 35, 48, 35, 46, 38, 31, 41, 34, 30, 50, 48, 50, 31, 49, 41, 34, 44, 32, 33, 40, 48, 37, 41, 49, 34, 37, 30, 37, 48, 35, 30], [48, 43, 47, 49, 46, 38, 41, 48, 42, 43, 31, 40, 37, 45, 30, 45, 33, 39, 30, 48, 32, 30, 35, 30, 34, 50, 38, 43, 40, 45, 49, 47, 35, 48, 39, 45, 38, 38, 44, 31, 50, 48, 39, 38, 35, 35, 38, 47, 40, 37, 30, 40, 38, 35, 31, 30, 43, 40, 36, 39], [39, 46, 30, 35, 40, 33, 47, 50, 40, 45, 39, 30, 43, 50, 36, 31, 49, 32, 45, 32, 50, 45, 37, 37, 46, 35, 48, 38, 30, 41, 32, 41, 32, 46, 50, 34, 43, 45, 36, 37, 44, 32, 45, 32, 30, 49, 44, 49, 47, 47, 40, 41, 37, 31, 50, 43, 46, 44, 45, 34]], [[0, 0, 0, 0, 0, 0, 0, 0, 0, 0, 0, 0, 0, 0, 0, 0, 0, 0, 0, 0, 0, 0, 0, 0, 0, 0, 0, 0, 0, 0, 0, 0, 0, 0, 0, 0, 0, 0, 0, 0, 0, 0, 0, 0, 0, 0, 0, 0, 0, 0, 0, 0, 0, 0, 0, 0, 0, 0, 0, 0], [0, 0, 0, 0, 0, 0, 0, 0, 0, 0, 0, 0, 0, 0, 0, 0, 0, 0, 0, 0, 0, 0, 0, 0, 0, 0, 0, 0, 0, 0, 0, 0, 0, 0, 0, 0, 0, 0, 0, 0, 0, 0, 0, 0, 0, 0, 0, 0, 0, 0, 0, 0, 0, 0, 0, 0, 0, 0, 0, 0], [0, 0, 0, 0, 0, 0, 0, 0, 0, 0, 0, 0, 0, 0, 0, 0, 0, 0, 0, 0, 0, 0, 0, 0, 0, 0, 0, 0, 0, 0, 0, 0, 0, 0, 0, 0, 0, 0, 0, 0, 0, 0, 0, 0, 0, 0, 0, 0, 0, 0, 0, 0, 0, 0, 0, 0, 0, 0, 0, 0], [0, 0, 0, 0, 0, 0, 0, 0, 0, 0, 0, 0, 0, 0, 0, 0, 0, 0, 0, 0, 0, 0, 0, 0, 0, 0, 0, 0, 0, 0, 0, 0, 0, 0, 0, 0, 0, 0, 0, 0, 0, 0, 0, 0, 0, 0, 0, 0, 0, 0, 0, 0, 0, 0, 0, 0, 0, 0, 0, 0], [49, 35, 42, 30, 37, 30, 46, 41, 30, 33, 47, 42, 37, 40, 41, 33, 41, 39, 49, 43, 47, 49, 32, 47, 31, 44, 32, 38, 35, 42, 30, 41, 42, 32, 31, 41, 45, 40, 35, 30, 33, 46, 39, 45, 49, 41, 33, 31, 41, 37, 48, 37, 35, 34, 39, 43, 42, 44, 31, 47], [38, 30, 34, 46, 39, 46, 43, 45, 43, 50, 34, 35, 30, 44, 36, 36, 34, 31, 30, 50, 45, 32, 33, 48, 34, 45, 34, 50, 38, 38, 31, 47, 36, 34, 32, 45, 38, 30, 31, 41, 39, 32, 39, 30, 30, 30, 39, 44, 48, 38, 50, 49, 38, 37, 44, 44, 30, 50, 50, 41], [35, 40, 42, 47, 34, 50, 50, 30, 31, 35, 34, 34, 36, 42, 42, 46, 50, 37, 49, 33, 35, 38, 34, 46, 42, 33, 37, 38, 46, 39, 45, 43, 32, 46, 32, 37, 35, 36, 30, 40, 49, 47, 38, 38, 33, 30, 31, 37, 33, 46, 39, 38, 43, 30, 34, 45, 35, 45, 39, 46], [40, 44, 31, 38, 42, 49, 34, 43, 39, 31, 38, 47, 47, 31, 49, 38, 34, 30, 44, 38, 50, 40, 42, 40, 48, 39, 30, 49, 42, 40, 44, 35, 36, 50, 40, 40, 49, 48, 32, 37, 48, 45, 44, 37, 31, 35, 37, 47, 44, 46, 33, 36, 39, 36, 38, 39, 34, 43, 38, 44], [30, 40, 45, 43, 36, 49, 32, 33, 43, 49, 33, 48, 48, 35, 46, 48, 30, 45, 44, 36, 49, 49, 40, 33, 34, 36, 44, 35, 39, 33, 44, 35, 30, 44, 36, 35, 33, 42, 33, 30, 38, 40, 38, 33, 46, 45, 50, 50, 43, 33, 49, 48, 44, 42, 49, 35, 45, 40, 45, 40], [48, 46, 33, 43, 32, 32, 46, 33, 41, 42, 41, 40, 31, 38, 33, 43, 48, 34, 44, 44, 39, 44, 34, 40, 30, 32, 37, 31, 35, 34, 44, 39, 37, 38, 50, 38, 32, 44, 43, 36, 34, 49, 45, 43, 33, 49, 38, 39, 35, 32, 40, 32, 40, 34, 46, 41, 37, 30, 39, 46]], [[0, 0, 0, 0, 0, 0, 0, 0, 0, 0, 0, 0, 0, 0, 0, 0, 0, 0, 0, 0, 0, 0, 0, 0, 0, 0, 0, 0, 0, 0, 0, 0, 0, 0, 0, 0, 0, 0, 0, 0, 0, 0, 0, 0, 0, 0, 0, 0, 0, 0, 0, 0, 0, 0, 0, 0, 0, 0, 0, 0], [0, 0, 0, 0, 0, 0, 0, 0, 0, 0, 0, 0, 0, 0, 0, 0, 0, 0, 0, 0, 0, 0, 0, 0, 0, 0, 0, 0, 0, 0, 0, 0, 0, 0, 0, 0, 0, 0, 0, 0, 0, 0, 0, 0, 0, 0, 0, 0, 0, 0, 0, 0, 0, 0, 0, 0, 0, 0, 0, 0], [0, 0, 0, 0, 0, 0, 0, 0, 0, 0, 0, 0, 0, 0, 0, 0, 0, 0, 0, 0, 0, 0, 0, 0, 0, 0, 0, 0, 0, 0, 0, 0, 0, 0, 0, 0, 0, 0, 0, 0, 0, 0, 0, 0, 0, 0, 0, 0, 0, 0, 0, 0, 0, 0, 0, 0, 0, 0, 0, 0], [0, 0, 0, 0, 0, 0, 0, 0, 0, 0, 0, 0, 0, 0, 0, 0, 0, 0, 0, 0, 0, 0, 0, 0, 0, 0, 0, 0, 0, 0, 0, 0, 0, 0, 0, 0, 0, 0, 0, 0, 0, 0, 0, 0, 0, 0, 0, 0, 0, 0, 0, 0, 0, 0, 0, 0, 0, 0, 0, 0], [0, 0, 0, 0, 0, 0, 0, 0, 0, 0, 0, 0, 0, 0, 0, 0, 0, 0, 0, 0, 0, 0, 0, 0, 0, 0, 0, 0, 0, 0, 0, 0, 0, 0, 0, 0, 0, 0, 0, 0, 0, 0, 0, 0, 0, 0, 0, 0, 0, 0, 0, 0, 0, 0, 0, 0, 0, 0, 0, 0], [37, 46, 46, 43, 43, 34, 33, 45, 40, 37, 35, 41, 33, 39, 39, 31, 42, 49, 50, 50, 36, 30, 31, 40, 37, 49, 34, 32, 46, 49, 42, 32, 41, 35, 33, 47, 39, 35, 33, 35, 49, 43, 45, 46, 48, 34, 34, 49, 39, 36, 35, 48, 46, 41, 46, 40, 46, 46, 45, 48], [35, 32, 41, 44, 40, 34, 35, 37, 47, 35, 40, 34, 40, 43, 31, 32, 35, 49, 30, 33, 42, 33, 33, 35, 44, 44, 32, 40, 35, 41, 41, 41, 37, 39, 41, 39, 31, 33, 30, 39, 46, 45, 37, 47, 49, 40, 37, 32, 33, 48, 37, 47, 36, 37, 41, 36, 36, 36, 45, 37], [49, 47, 46, 48, 45, 37, 43, 41, 45, 35, 43, 36, 36, 49, 36, 38, 41, 30, 36, 36, 43, 39, 40, 48, 40, 48, 42, 44, 36, 48, 36, 44, 34, 31, 50, 43, 44, 47, 42, 46, 37, 37, 45, 30, 42, 39, 40, 38, 44, 50, 38, 46, 32, 48, 49, 39, 30, 42, 46, 38], [32, 39, 50, 34, 32, 44, 41, 42, 30, 48, 42, 49, 38, 47, 36, 36, 48, 36, 45, 50, 36, 45, 40, 37, 44, 45, 35, 48, 44, 41, 40, 45, 37, 44, 44, 36, 36, 36, 33, 33, 44, 30, 43, 32, 44, 49, 50, 46, 35, 41, 35, 30, 40, 43, 40, 39, 49, 43, 43, 36], [35, 44, 45, 48, 50, 46, 30, 47, 50, 34, 30, 32, 33, 31, 43, 39, 48, 36, 50, 41, 38, 43, 46, 50, 44, 38, 33, 35, 47, 50, 48, 48, 32, 33, 34, 41, 34, 36, 38, 30, 46, 37, 42, 35, 37, 36, 34, 50, 47, 39, 30, 49, 40, 48, 50, 43, 32, 32, 38, 43]], [[0, 0, 0, 0, 0, 0, 0, 0, 0, 0, 0, 0, 0, 0, 0, 0, 0, 0, 0, 0, 0, 0, 0, 0, 0, 0, 0, 0, 0, 0, 0, 0, 0, 0, 0, 0, 0, 0, 0, 0, 0, 0, 0, 0, 0, 0, 0, 0, 0, 0, 0, 0, 0, 0, 0, 0, 0, 0, 0, 0], [0, 0, 0, 0, 0, 0, 0, 0, 0, 0, 0, 0, 0, 0, 0, 0, 0, 0, 0, 0, 0, 0, 0, 0, 0, 0, 0, 0, 0, 0, 0, 0, 0, 0, 0, 0, 0, 0, 0, 0, 0, 0, 0, 0, 0, 0, 0, 0, 0, 0, 0, 0, 0, 0, 0, 0, 0, 0, 0, 0], [0, 0, 0, 0, 0, 0, 0, 0, 0, 0, 0, 0, 0, 0, 0, 0, 0, 0, 0, 0, 0, 0, 0, 0, 0, 0, 0, 0, 0, 0, 0, 0, 0, 0, 0, 0, 0, 0, 0, 0, 0, 0, 0, 0, 0, 0, 0, 0, 0, 0, 0, 0, 0, 0, 0, 0, 0, 0, 0, 0], [0, 0, 0, 0, 0, 0, 0, 0, 0, 0, 0, 0, 0, 0, 0, 0, 0, 0, 0, 0, 0, 0, 0, 0, 0, 0, 0, 0, 0, 0, 0, 0, 0, 0, 0, 0, 0, 0, 0, 0, 0, 0, 0, 0, 0, 0, 0, 0, 0, 0, 0, 0, 0, 0, 0, 0, 0, 0, 0, 0], [0, 0, 0, 0, 0, 0, 0, 0, 0, 0, 0, 0, 0, 0, 0, 0, 0, 0, 0, 0, 0, 0, 0, 0, 0, 0, 0, 0, 0, 0, 0, 0, 0, 0, 0, 0, 0, 0, 0, 0, 0, 0, 0, 0, 0, 0, 0, 0, 0, 0, 0, 0, 0, 0, 0, 0, 0, 0, 0, 0], [0, 0, 0, 0, 0, 0, 0, 0, 0, 0, 0, 0, 0, 0, 0, 0, 0, 0, 0, 0, 0, 0, 0, 0, 0, 0, 0, 0, 0, 0, 0, 0, 0, 0, 0, 0, 0, 0, 0, 0, 0, 0, 0, 0, 0, 0, 0, 0, 0, 0, 0, 0, 0, 0, 0, 0, 0, 0, 0, 0], [36, 32, 41, 35, 49, 42, 38, 35, 40, 37, 35, 39, 50, 49, 32, 33, 40, 46, 47, 48, 50, 43, 30, 36, 39, 42, 40, 32, 38, 36, 32, 40, 42, 32, 40, 38, 39, 31, 42, 38, 44, 36, 38, 36, 34, 31, 48, 40, 32, 40, 48, 46, 32, 39, 40, 30, 42, 41, 37, 47], [37, 45, 47, 34, 32, 32, 40, 37, 30, 37, 30, 45, 33, 33, 47, 33, 46, 37, 42, 49, 42, 50, 42, 37, 36, 30, 40, 40, 34, 37, 39, 30, 43, 32, 40, 45, 40, 43, 44, 30, 44, 43, 31, 44, 50, 31, 44, 46, 31, 46, 44, 39, 34, 43, 44, 50, 36, 31, 31, 38], [39, 40, 46, 32, 49, 42, 30, 48, 36, 46, 42, 35, 50, 40, 38, 50, 35, 36, 50, 48, 30, 42, 47, 46, 41, 40, 30, 34, 45, 31, 34, 48, 50, 37, 42, 48, 47, 45, 36, 43, 30, 39, 34, 41, 35, 32, 34, 42, 48, 39, 38, 50, 45, 42, 42, 49, 42, 31, 46, 38], [46, 32, 44, 43, 32, 49, 42, 34, 35, 41, 40, 47, 42, 32, 47, 34, 34, 35, 40, 34, 36, 44, 36, 41, 45, 44, 38, 39, 40, 43, 43, 33, 30, 46, 41, 32, 46, 37, 37, 48, 34, 48, 34, 39, 30, 36, 42, 30, 41, 46, 38, 33, 46, 38, 37, 47, 37, 39, 32, 39]], [[0, 0, 0, 0, 0, 0, 0, 0, 0, 0, 0, 0, 0, 0, 0, 0, 0, 0, 0, 0, 0, 0, 0, 0, 0, 0, 0, 0, 0, 0, 0, 0, 0, 0, 0, 0, 0, 0, 0, 0, 0, 0, 0, 0, 0, 0, 0, 0, 0, 0, 0, 0, 0, 0, 0, 0, 0, 0, 0, 0], [0, 0, 0, 0, 0, 0, 0, 0, 0, 0, 0, 0, 0, 0, 0, 0, 0, 0, 0, 0, 0, 0, 0, 0, 0, 0, 0, 0, 0, 0, 0, 0, 0, 0, 0, 0, 0, 0, 0, 0, 0, 0, 0, 0, 0, 0, 0, 0, 0, 0, 0, 0, 0, 0, 0, 0, 0, 0, 0, 0], [0, 0, 0, 0, 0, 0, 0, 0, 0, 0, 0, 0, 0, 0, 0, 0, 0, 0, 0, 0, 0, 0, 0, 0, 0, 0, 0, 0, 0, 0, 0, 0, 0, 0, 0, 0, 0, 0, 0, 0, 0, 0, 0, 0, 0, 0, 0, 0, 0, 0, 0, 0, 0, 0, 0, 0, 0, 0, 0, 0], [0, 0, 0, 0, 0, 0, 0, 0, 0, 0, 0, 0, 0, 0, 0, 0, 0, 0, 0, 0, 0, 0, 0, 0, 0, 0, 0, 0, 0, 0, 0, 0, 0, 0, 0, 0, 0, 0, 0, 0, 0, 0, 0, 0, 0, 0, 0, 0, 0, 0, 0, 0, 0, 0, 0, 0, 0, 0, 0, 0], [0, 0, 0, 0, 0, 0, 0, 0, 0, 0, 0, 0, 0, 0, 0, 0, 0, 0, 0, 0, 0, 0, 0, 0, 0, 0, 0, 0, 0, 0, 0, 0, 0, 0, 0, 0, 0, 0, 0, 0, 0, 0, 0, 0, 0, 0, 0, 0, 0, 0, 0, 0, 0, 0, 0, 0, 0, 0, 0, 0], [0, 0, 0, 0, 0, 0, 0, 0, 0, 0, 0, 0, 0, 0, 0, 0, 0, 0, 0, 0, 0, 0, 0, 0, 0, 0, 0, 0, 0, 0, 0, 0, 0, 0, 0, 0, 0, 0, 0, 0, 0, 0, 0, 0, 0, 0, 0, 0, 0, 0, 0, 0, 0, 0, 0, 0, 0, 0, 0, 0], [0, 0, 0, 0, 0, 0, 0, 0, 0, 0, 0, 0, 0, 0, 0, 0, 0, 0, 0, 0, 0, 0, 0, 0, 0, 0, 0, 0, 0, 0, 0, 0, 0, 0, 0, 0, 0, 0, 0, 0, 0, 0, 0, 0, 0, 0, 0, 0, 0, 0, 0, 0, 0, 0, 0, 0, 0, 0, 0, 0], [42, 39, 43, 48, 47, 50, 38, 50, 43, 30, 33, 36, 33, 41, 30, 46, 46, 37, 39, 41, 41, 43, 32, 42, 42, 37, 36, 34, 47, 35, 47, 36, 37, 35, 50, 37, 41, 47, 35, 37, 44, 45, 38, 49, 45, 39, 42, 33, 50, 41, 49, 33, 40, 37, 50, 33, 48, 34, 41, 41], [44, 33, 33, 40, 39, 36, 35, 42, 40, 38, 41, 38, 30, 35, 38, 45, 30, 50, 39, 33, 48, 43, 36, 43, 47, 38, 39, 38, 43, 30, 45, 43, 48, 45, 48, 43, 49, 45, 47, 30, 50, 45, 41, 45, 39, 35, 33, 49, 30, 33, 49, 36, 34, 48, 40, 32, 34, 46, 49, 31], [43, 39, 44, 47, 31, 37, 47, 47, 49, 50, 33, 50, 42, 48, 32, 35, 39, 39, 49, 31, 33, 32, 42, 34, 41, 31, 40, 47, 37, 40, 45, 43, 32, 30, 43, 38, 43, 47, 43, 50, 35, 36, 38, 39, 48, 50, 50, 36, 33, 32, 30, 48, 50, 30, 33, 40, 39, 34, 45, 34]], [[0, 0, 0, 0, 0, 0, 0, 0, 0, 0, 0, 0, 0, 0, 0, 0, 0, 0, 0, 0, 0, 0, 0, 0, 0, 0, 0, 0, 0, 0, 0, 0, 0, 0, 0, 0, 0, 0, 0, 0, 0, 0, 0, 0, 0, 0, 0, 0, 0, 0, 0, 0, 0, 0, 0, 0, 0, 0, 0, 0], [0, 0, 0, 0, 0, 0, 0, 0, 0, 0, 0, 0, 0, 0, 0, 0, 0, 0, 0, 0, 0, 0, 0, 0, 0, 0, 0, 0, 0, 0, 0, 0, 0, 0, 0, 0, 0, 0, 0, 0, 0, 0, 0, 0, 0, 0, 0, 0, 0, 0, 0, 0, 0, 0, 0, 0, 0, 0, 0, 0], [0, 0, 0, 0, 0, 0, 0, 0, 0, 0, 0, 0, 0, 0, 0, 0, 0, 0, 0, 0, 0, 0, 0, 0, 0, 0, 0, 0, 0, 0, 0, 0, 0, 0, 0, 0, 0, 0, 0, 0, 0, 0, 0, 0, 0, 0, 0, 0, 0, 0, 0, 0, 0, 0, 0, 0, 0, 0, 0, 0], [0, 0, 0, 0, 0, 0, 0, 0, 0, 0, 0, 0, 0, 0, 0, 0, 0, 0, 0, 0, 0, 0, 0, 0, 0, 0, 0, 0, 0, 0, 0, 0, 0, 0, 0, 0, 0, 0, 0, 0, 0, 0, 0, 0, 0, 0, 0, 0, 0, 0, 0, 0, 0, 0, 0, 0, 0, 0, 0, 0], [0, 0, 0, 0, 0, 0, 0, 0, 0, 0, 0, 0, 0, 0, 0, 0, 0, 0, 0, 0, 0, 0, 0, 0, 0, 0, 0, 0, 0, 0, 0, 0, 0, 0, 0, 0, 0, 0, 0, 0, 0, 0, 0, 0, 0, 0, 0, 0, 0, 0, 0, 0, 0, 0, 0, 0, 0, 0, 0, 0], [0, 0, 0, 0, 0, 0, 0, 0, 0, 0, 0, 0, 0, 0, 0, 0, 0, 0, 0, 0, 0, 0, 0, 0, 0, 0, 0, 0, 0, 0, 0, 0, 0, 0, 0, 0, 0, 0, 0, 0, 0, 0, 0, 0, 0, 0, 0, 0, 0, 0, 0, 0, 0, 0, 0, 0, 0, 0, 0, 0], [0, 0, 0, 0, 0, 0, 0, 0, 0, 0, 0, 0, 0, 0, 0, 0, 0, 0, 0, 0, 0, 0, 0, 0, 0, 0, 0, 0, 0, 0, 0, 0, 0, 0, 0, 0, 0, 0, 0, 0, 0, 0, 0, 0, 0, 0, 0, 0, 0, 0, 0, 0, 0, 0, 0, 0, 0, 0, 0, 0], [0, 0, 0, 0, 0, 0, 0, 0, 0, 0, 0, 0, 0, 0, 0, 0, 0, 0, 0, 0, 0, 0, 0, 0, 0, 0, 0, 0, 0, 0, 0, 0, 0, 0, 0, 0, 0, 0, 0, 0, 0, 0, 0, 0, 0, 0, 0, 0, 0, 0, 0, 0, 0, 0, 0, 0, 0, 0, 0, 0], [39, 48, 49, 35, 31, 31, 36, 50, 34, 32, 46, 50, 40, 33, 40, 41, 46, 40, 50, 30, 31, 31, 46, 40, 45, 34, 35, 33, 46, 31, 39, 39, 34, 32, 40, 38, 34, 34, 47, 30, 32, 34, 40, 35, 41, 38, 45, 43, 45, 47, 40, 40, 31, 41, 48, 45, 35, 43, 39, 44], [43, 38, 30, 48, 48, 45, 36, 37, 31, 44, 35, 41, 46, 38, 46, 46, 43, 49, 46, 45, 32, 37, 32, 43, 48, 38, 47, 44, 49, 49, 46, 36, 35, 39, 37, 41, 46, 41, 44, 33, 47, 50, 33, 36, 30, 44, 37, 50, 31, 39, 42, 30, 44, 48, 32, 49, 49, 33, 30, 48]], [[0, 0, 0, 0, 0, 0, 0, 0, 0, 0, 0, 0, 0, 0, 0, 0, 0, 0, 0, 0, 0, 0, 0, 0, 0, 0, 0, 0, 0, 0, 0, 0, 0, 0, 0, 0, 0, 0, 0, 0, 0, 0, 0, 0, 0, 0, 0, 0, 0, 0, 0, 0, 0, 0, 0, 0, 0, 0, 0, 0], [0, 0, 0, 0, 0, 0, 0, 0, 0, 0, 0, 0, 0, 0, 0, 0, 0, 0, 0, 0, 0, 0, 0, 0, 0, 0, 0, 0, 0, 0, 0, 0, 0, 0, 0, 0, 0, 0, 0, 0, 0, 0, 0, 0, 0, 0, 0, 0, 0, 0, 0, 0, 0, 0, 0, 0, 0, 0, 0, 0], [0, 0, 0, 0, 0, 0, 0, 0, 0, 0, 0, 0, 0, 0, 0, 0, 0, 0, 0, 0, 0, 0, 0, 0, 0, 0, 0, 0, 0, 0, 0, 0, 0, 0, 0, 0, 0, 0, 0, 0, 0, 0, 0, 0, 0, 0, 0, 0, 0, 0, 0, 0, 0, 0, 0, 0, 0, 0, 0, 0], [0, 0, 0, 0, 0, 0, 0, 0, 0, 0, 0, 0, 0, 0, 0, 0, 0, 0, 0, 0, 0, 0, 0, 0, 0, 0, 0, 0, 0, 0, 0, 0, 0, 0, 0, 0, 0, 0, 0, 0, 0, 0, 0, 0, 0, 0, 0, 0, 0, 0, 0, 0, 0, 0, 0, 0, 0, 0, 0, 0], [0, 0, 0, 0, 0, 0, 0, 0, 0, 0, 0, 0, 0, 0, 0, 0, 0, 0, 0, 0, 0, 0, 0, 0, 0, 0, 0, 0, 0, 0, 0, 0, 0, 0, 0, 0, 0, 0, 0, 0, 0, 0, 0, 0, 0, 0, 0, 0, 0, 0, 0, 0, 0, 0, 0, 0, 0, 0, 0, 0], [0, 0, 0, 0, 0, 0, 0, 0, 0, 0, 0, 0, 0, 0, 0, 0, 0, 0, 0, 0, 0, 0, 0, 0, 0, 0, 0, 0, 0, 0, 0, 0, 0, 0, 0, 0, 0, 0, 0, 0, 0, 0, 0, 0, 0, 0, 0, 0, 0, 0, 0, 0, 0, 0, 0, 0, 0, 0, 0, 0], [0, 0, 0, 0, 0, 0, 0, 0, 0, 0, 0, 0, 0, 0, 0, 0, 0, 0, 0, 0, 0, 0, 0, 0, 0, 0, 0, 0, 0, 0, 0, 0, 0, 0, 0, 0, 0, 0, 0, 0, 0, 0, 0, 0, 0, 0, 0, 0, 0, 0, 0, 0, 0, 0, 0, 0, 0, 0, 0, 0], [0, 0, 0, 0, 0, 0, 0, 0, 0, 0, 0, 0, 0, 0, 0, 0, 0, 0, 0, 0, 0, 0, 0, 0, 0, 0, 0, 0, 0, 0, 0, 0, 0, 0, 0, 0, 0, 0, 0, 0, 0, 0, 0, 0, 0, 0, 0, 0, 0, 0, 0, 0, 0, 0, 0, 0, 0, 0, 0, 0], [0, 0, 0, 0, 0, 0, 0, 0, 0, 0, 0, 0, 0, 0, 0, 0, 0, 0, 0, 0, 0, 0, 0, 0, 0, 0, 0, 0, 0, 0, 0, 0, 0, 0, 0, 0, 0, 0, 0, 0, 0, 0, 0, 0, 0, 0, 0, 0, 0, 0, 0, 0, 0, 0, 0, 0, 0, 0, 0, 0], [31, 47, 41, 47, 39, 30, 50, 44, 40, 47, 45, 44, 47, 46, 35, 32, 43, 39, 47, 50, 43, 41, 45, 40, 32, 49, 39, 49, 50, 45, 40, 39, 33, 42, 31, 38, 42, 39, 48, 34, 50, 30, 46, 37, 36, 45, 44, 47, 49, 34, 43, 35, 36, 36, 34, 35, 45, 32, 38, 41]], [[0, 0, 0, 0, 0, 0, 0, 0, 0, 0, 0, 0, 0, 0, 0, 0, 0, 0, 0, 0, 0, 0, 0, 0, 0, 0, 0, 0, 0, 0, 0, 0, 0, 0, 0, 0, 0, 0, 0, 0, 0, 0, 0, 0, 0, 0, 0, 0, 0, 0, 0, 0, 0, 0, 0, 0, 0, 0, 0, 0], [0, 0, 0, 0, 0, 0, 0, 0, 0, 0, 0, 0, 0, 0, 0, 0, 0, 0, 0, 0, 0, 0, 0, 0, 0, 0, 0, 0, 0, 0, 0, 0, 0, 0, 0, 0, 0, 0, 0, 0, 0, 0, 0, 0, 0, 0, 0, 0, 0, 0, 0, 0, 0, 0, 0, 0, 0, 0, 0, 0], [0, 0, 0, 0, 0, 0, 0, 0, 0, 0, 0, 0, 0, 0, 0, 0, 0, 0, 0, 0, 0, 0, 0, 0, 0, 0, 0, 0, 0, 0, 0, 0, 0, 0, 0, 0, 0, 0, 0, 0, 0, 0, 0, 0, 0, 0, 0, 0, 0, 0, 0, 0, 0, 0, 0, 0, 0, 0, 0, 0], [0, 0, 0, 0, 0, 0, 0, 0, 0, 0, 0, 0, 0, 0, 0, 0, 0, 0, 0, 0, 0, 0, 0, 0, 0, 0, 0, 0, 0, 0, 0, 0, 0, 0, 0, 0, 0, 0, 0, 0, 0, 0, 0, 0, 0, 0, 0, 0, 0, 0, 0, 0, 0, 0, 0, 0, 0, 0, 0, 0], [0, 0, 0, 0, 0, 0, 0, 0, 0, 0, 0, 0, 0, 0, 0, 0, 0, 0, 0, 0, 0, 0, 0, 0, 0, 0, 0, 0, 0, 0, 0, 0, 0, 0, 0, 0, 0, 0, 0, 0, 0, 0, 0, 0, 0, 0, 0, 0, 0, 0, 0, 0, 0, 0, 0, 0, 0, 0, 0, 0], [0, 0, 0, 0, 0, 0, 0, 0, 0, 0, 0, 0, 0, 0, 0, 0, 0, 0, 0, 0, 0, 0, 0, 0, 0, 0, 0, 0, 0, 0, 0, 0, 0, 0, 0, 0, 0, 0, 0, 0, 0, 0, 0, 0, 0, 0, 0, 0, 0, 0, 0, 0, 0, 0, 0, 0, 0, 0, 0, 0], [0, 0, 0, 0, 0, 0, 0, 0, 0, 0, 0, 0, 0, 0, 0, 0, 0, 0, 0, 0, 0, 0, 0, 0, 0, 0, 0, 0, 0, 0, 0, 0, 0, 0, 0, 0, 0, 0, 0, 0, 0, 0, 0, 0, 0, 0, 0, 0, 0, 0, 0, 0, 0, 0, 0, 0, 0, 0, 0, 0], [0, 0, 0, 0, 0, 0, 0, 0, 0, 0, 0, 0, 0, 0, 0, 0, 0, 0, 0, 0, 0, 0, 0, 0, 0, 0, 0, 0, 0, 0, 0, 0, 0, 0, 0, 0, 0, 0, 0, 0, 0, 0, 0, 0, 0, 0, 0, 0, 0, 0, 0, 0, 0, 0, 0, 0, 0, 0, 0, 0], [0, 0, 0, 0, 0, 0, 0, 0, 0, 0, 0, 0, 0, 0, 0, 0, 0, 0, 0, 0, 0, 0, 0, 0, 0, 0, 0, 0, 0, 0, 0, 0, 0, 0, 0, 0, 0, 0, 0, 0, 0, 0, 0, 0, 0, 0, 0, 0, 0, 0, 0, 0, 0, 0, 0, 0, 0, 0, 0, 0], [0, 0, 0, 0, 0, 0, 0, 0, 0, 0, 0, 0, 0, 0, 0, 0, 0, 0, 0, 0, 0, 0, 0, 0, 0, 0, 0, 0, 0, 0, 0, 0, 0, 0, 0, 0, 0, 0, 0, 0, 0, 0, 0, 0, 0, 0, 0, 0, 0, 0, 0, 0, 0, 0, 0, 0, 0, 0, 0, 0]]];

q = [[[17], [25], [6], [14], [16], [12], [19], [19], [5], [16], [23], [16], [15], [22], [19], [10], [25], [7], [24], [9], [7], [24], [22], [23], [10], [25], [21], [16], [13], [17], [9], [6], [16], [23], [11], [22], [14], [22], [5], [14], [9], [19], [24], [16], [6], [21], [19], [11], [22], [22], [19], [24], [12], [20], [15], [17], [21], [17], [25], [19]], [[6], [24], [12], [24], [14], [22], [11], [10], [25], [12], [20], [17], [18], [22], [11], [15], [20], [20], [21], [12], [5], [5], [25], [15], [24], [17], [7], [21], [11], [12], [24], [16], [12], [5], [9], [11], [14], [7], [14], [9], [13], [7], [25], [12], [6], [10], [7], [15], [13], [22], [6], [10], [5], [21], [5], [16], [16], [13], [5], [23]], [[21], [21], [7], [5], [20], [16], [9], [14], [22], [12], [9], [8], [14], [17], [22], [9], [17], [8], [12], [15], [24], [19], [6], [8], [16], [14], [14], [23], [14], [23], [5], [21], [17], [25], [13], [23], [23], [12], [20], [19], [16], [15], [22], [19], [18], [7], [5], [20], [19], [9], [23], [14], [14], [11], [20], [15], [25], [17], [12], [13]], [[22], [14], [19], [7], [5], [20], [19], [5], [20], [7], [12], [8], [13], [18], [16], [9], [23], [16], [16], [9], [25], [8], [13], [16], [6], [8], [5], [18], [12], [5], [12], [16], [12], [25], [5], [24], [23], [23], [25], [22], [17], [17], [21], [24], [16], [7], [17], [9], [13], [24], [22], [25], [25], [23], [12], [12], [8], [24], [14], [8]], [[17], [10], [18], [13], [14], [18], [6], [6], [11], [9], [12], [20], [15], [12], [18], [18], [11], [7], [9], [25], [13], [9], [10], [9], [15], [10], [19], [15], [15], [14], [25], [6], [12], [21], [9], [10], [18], [20], [13], [17], [17], [21], [15], [9], [22], [11], [14], [14], [13], [16], [12], [5], [14], [18], [24], [9], [19], [14], [9], [24]], [[24], [23], [6], [13], [9], [17], [18], [21], [10], [15], [15], [18], [14], [15], [11], [24], [20], [24], [16], [20], [23], [25], [9], [21], [21], [13], [9], [24], [12], [8], [14], [21], [16], [25], [20], [23], [8], [16], [20], [10], [5], [16], [11], [20], [10], [11], [21], [15], [12], [12], [21], [10], [19], [18], [10], [25], [23], [16], [8], [25]], [[5], [21], [24], [13], [21], [11], [18], [12], [24], [22], [20], [21], [16], [18], [8], [25], [7], [19], [11], [12], [18], [5], [15], [7], [12], [5], [23], [16], [12], [5], [8], [24], [25], [10], [13], [24], [22], [20], [12], [16], [18], [9], [21], [17], [19], [6], [21], [12], [6], [9], [24], [10], [8], [13], [13], [13], [23], [25], [8], [22]], [[9], [19], [23], [7], [5], [8], [16], [17], [21], [15], [15], [12], [21], [24], [15], [6], [7], [11], [5], [13], [10], [16], [19], [9], [22], [8], [21], [17], [7], [8], [25], [23], [20], [8], [14], [16], [5], [16], [5], [10], [17], [6], [18], [9], [19], [9], [11], [18], [23], [14], [24], [13], [20], [10], [22], [19], [6], [15], [18], [15]], [[23], [15], [16], [20], [19], [23], [8], [15], [24], [25], [25], [5], [13], [14], [12], [25], [5], [11], [23], [24], [18], [7], [17], [10], [25], [21], [13], [19], [18], [6], [8], [9], [21], [18], [5], [12], [8], [7], [19], [24], [7], [9], [22], [7], [9], [10], [14], [24], [22], [24], [15], [16], [11], [19], [18], [18], [16], [8], [6], [8]], [[10], [14], [24], [13], [18], [11], [13], [24], [22], [7], [12], [17], [23], [12], [15], [5], [5], [16], [20], [22], [18], [12], [20], [12], [9], [5], [7], [6], [25], [6], [7], [13], [7], [23], [21], [21], [18], [8], [23], [7], [11], [9], [15], [19], [9], [13], [22], [24], [18], [14], [11], [15], [15], [18], [22], [13], [17], [14], [11], [11]]];
Q = [[79], [67], [74], [73], [67], [78], [73], [68], [73], [69]];
